solution status: optimal solution found
objective value:                                   11
x25                                                 1 	(obj:1)
x26                                                 1 	(obj:1)
x28                                                 1 	(obj:1)
x29                                                 1 	(obj:1)
x30                                                 1 	(obj:1)
x46                                                 1 	(obj:1)
x48                                                 1 	(obj:1)
x54                                                 1 	(obj:1)
x56                                                 1 	(obj:1)
x61                                                 1 	(obj:1)
x63                                                 1 	(obj:1)
one.thingy.devices[0].thingy.vs0_y                   22 	(obj:0)
one.thingy.devices[0].thingy.vs0_z                   23 	(obj:0)
$_18__5_y                                         -20 	(obj:0)
$_18__5_z                                          18 	(obj:0)
one.thingy.devices[2].thingy.vs0_y                   18 	(obj:0)
one.thingy.devices[2].thingy.vs0_z                   23 	(obj:0)
one.thingy.devices[1].thingy.vs0_y                   20 	(obj:0)
one.thingy.devices[1].thingy.vs0_z                   24 	(obj:0)
one.thingy.devices[3].thingy.vs0_y                   20 	(obj:0)
one.thingy.devices[3].thingy.vs0_z                   19 	(obj:0)
$_22__5_y                                           8 	(obj:0)
$_22__5_z                                          19 	(obj:0)
$_20__5_y                                          19 	(obj:0)
$_20__5_z                                          20 	(obj:0)
$_24__5_y                                           4 	(obj:0)
$_24__5_z                                          18 	(obj:0)
$_23__5_y                                          22 	(obj:0)
$_23__5_z                                          17 	(obj:0)
$_25__5_y                                          18 	(obj:0)
$_25__5_z                                          17 	(obj:0)
$_21__5_z                                          19 	(obj:0)
$_19__5_y                                          23 	(obj:0)
$_19__5_z                                          20 	(obj:0)
